# Solution for model r3_t9_m8_3
# Finished Task: 9 / 9
# Makespan: 411.0, Total Distance: 592.0, Total Time: 0.0697
# R O S F
0 0 11 0.0 0.0
1 1 6 0.0 0.0
2 2 4 0.0 0.0
3 1 8 253.0 288.0
4 2 7 189.0 221.0
5 1 3 189.0 222.0
6 1 5 115.0 136.0
7 2 9 298.0 332.0
8 1 -1 362.0 392.0
9 2 -1 375.0 411.0
10 0 -1 312.0 351.0
11 0 10 164.0 189.0
